(declare-fun temp5157_1 () (_ BitVec 64))
(declare-fun var461682 () (_ BitVec 64))
(declare-fun var461681 () (_ BitVec 64))
(declare-fun var134653 () (_ BitVec 64))
(declare-fun var528535 () (_ BitVec 64))
(declare-fun var594392 () (_ BitVec 64))
(declare-fun temp5157_2 () (_ BitVec 64))
(declare-fun var2559573 () (_ BitVec 64))
(declare-fun var2559578 () (_ BitVec 64))
(declare-fun temp5157_3 () (_ BitVec 64))
(declare-fun var3083861 () (_ BitVec 64))
(declare-fun var3083866 () (_ BitVec 64))
(declare-fun temp5157_5 () (_ BitVec 64))
(declare-fun temp5157_4 () (_ BitVec 64))
(declare-fun temp5157_7 () (_ BitVec 64))
(declare-fun temp5157_6 () (_ BitVec 64))
(declare-fun temp5157_9 () (_ BitVec 64))
(declare-fun temp5157_8 () (_ BitVec 64))
(declare-fun temp5157_11 () (_ BitVec 64))
(declare-fun temp5157_10 () (_ BitVec 64))
(declare-fun temp5157_13 () (_ BitVec 64))
(declare-fun temp5157_12 () (_ BitVec 64))
(declare-fun temp5157_15 () (_ BitVec 64))
(declare-fun temp5157_14 () (_ BitVec 64))
(declare-fun temp5157_17 () (_ BitVec 64))
(declare-fun temp5157_16 () (_ BitVec 64))
(declare-fun temp5157_19 () (_ BitVec 64))
(declare-fun temp5157_18 () (_ BitVec 64))
(declare-fun temp5157_21 () (_ BitVec 64))
(declare-fun temp5157_20 () (_ BitVec 64))
(declare-fun temp5157_23 () (_ BitVec 64))
(declare-fun temp5157_22 () (_ BitVec 64))
(declare-fun temp5157_25 () (_ BitVec 64))
(declare-fun temp5157_24 () (_ BitVec 64))
(declare-fun temp5157_27 () (_ BitVec 64))
(declare-fun temp5157_26 () (_ BitVec 64))
(declare-fun temp5157_29 () (_ BitVec 64))
(declare-fun temp5157_28 () (_ BitVec 64))
(declare-fun temp5157_31 () (_ BitVec 64))
(declare-fun temp5157_30 () (_ BitVec 64))
(declare-fun temp5157_33 () (_ BitVec 64))
(declare-fun temp5157_32 () (_ BitVec 64))
(declare-fun temp5157_35 () (_ BitVec 64))
(declare-fun temp5157_34 () (_ BitVec 64))
(declare-fun temp5157_37 () (_ BitVec 64))
(declare-fun temp5157_36 () (_ BitVec 64))
(declare-fun temp5157_39 () (_ BitVec 64))
(declare-fun temp5157_38 () (_ BitVec 64))
(declare-fun temp5157_41 () (_ BitVec 64))
(declare-fun temp5157_40 () (_ BitVec 64))
(declare-fun temp5157_43 () (_ BitVec 64))
(declare-fun temp5157_42 () (_ BitVec 64))
(declare-fun temp5157_45 () (_ BitVec 64))
(declare-fun temp5157_44 () (_ BitVec 64))
(declare-fun temp5157_47 () (_ BitVec 64))
(declare-fun temp5157_46 () (_ BitVec 64))
(declare-fun temp5157_49 () (_ BitVec 64))
(declare-fun temp5157_48 () (_ BitVec 64))
(declare-fun temp5157_51 () (_ BitVec 64))
(declare-fun temp5157_50 () (_ BitVec 64))
(declare-fun temp5157_53 () (_ BitVec 64))
(declare-fun temp5157_52 () (_ BitVec 64))
(declare-fun temp5157_55 () (_ BitVec 64))
(declare-fun temp5157_54 () (_ BitVec 64))
(declare-fun temp5157_57 () (_ BitVec 64))
(declare-fun temp5157_56 () (_ BitVec 64))
(declare-fun temp5157_58 () (_ BitVec 64))
(declare-fun var4197973 () (_ BitVec 64))
(declare-fun var4197978 () (_ BitVec 64))
(assert (= temp5157_1 #x0000000000000007))
(assert (= var461682 temp5157_1))
(assert (= var461681 var461682))
(assert (= var134653 var461681))
(assert (= var528535 var134653))
(assert (= var594392 var528535))
(assert (= temp5157_2 #x0000000000000000))
(assert (= var2559573 temp5157_2))
(assert (= var2559578 var2559573))
(assert (= temp5157_3 #x0000000000000000))
(assert (= var3083861 temp5157_3))
(assert (= var3083866 var3083861))
(assert (= temp5157_5 #x0000000000000000))
(assert (= temp5157_4 temp5157_5))
(assert (= temp5157_7 #x0000000000000000))
(assert (= temp5157_6 temp5157_7))
(assert (= temp5157_9 #x0000000000000000))
(assert (= temp5157_8 temp5157_9))
(assert (= temp5157_11 #x0000000000000000))
(assert (= temp5157_10 temp5157_11))
(assert (= temp5157_13 #x0000000000000000))
(assert (= temp5157_12 temp5157_13))
(assert (= temp5157_15 #x0000000000000000))
(assert (= temp5157_14 temp5157_15))
(assert (= temp5157_17 #x0000000000000000))
(assert (= temp5157_16 temp5157_17))
(assert (= temp5157_19 #x0000000000000000))
(assert (= temp5157_18 temp5157_19))
(assert (= temp5157_21 #x0000000000000000))
(assert (= temp5157_20 temp5157_21))
(assert (= temp5157_23 #x0000000000000000))
(assert (= temp5157_22 temp5157_23))
(assert (= temp5157_25 #x0000000000000000))
(assert (= temp5157_24 temp5157_25))
(assert (= temp5157_27 #x0000000000000000))
(assert (= temp5157_26 temp5157_27))
(assert (= temp5157_29 #x0000000000000000))
(assert (= temp5157_28 temp5157_29))
(assert (= temp5157_31 #x0000000000000000))
(assert (= temp5157_30 temp5157_31))
(assert (= temp5157_33 #x0000000000000000))
(assert (= temp5157_32 temp5157_33))
(assert (= temp5157_35 #x0000000000000000))
(assert (= temp5157_34 temp5157_35))
(assert (= temp5157_37 #x0000000000000000))
(assert (= temp5157_36 temp5157_37))
(assert (= temp5157_39 #x0000000000000000))
(assert (= temp5157_38 temp5157_39))
(assert (= temp5157_41 #x0000000000000000))
(assert (= temp5157_40 temp5157_41))
(assert (= temp5157_43 #x0000000000000000))
(assert (= temp5157_42 temp5157_43))
(assert (= temp5157_45 #x0000000000000000))
(assert (= temp5157_44 temp5157_45))
(assert (= temp5157_47 #x0000000000000000))
(assert (= temp5157_46 temp5157_47))
(assert (= temp5157_49 #x0000000000000000))
(assert (= temp5157_48 temp5157_49))
(assert (= temp5157_51 #x0000000000000000))
(assert (= temp5157_50 temp5157_51))
(assert (= temp5157_53 #x0000000000000000))
(assert (= temp5157_52 temp5157_53))
(assert (= temp5157_55 #x0000000000000000))
(assert (= temp5157_54 temp5157_55))
(assert (= temp5157_57 #x0000000000000000))
(assert (= temp5157_56 temp5157_57))
(assert (= temp5157_58 #x0000000000000000))
(assert (= var4197973 temp5157_58))
(assert (= var4197978 var4197973))
(model-add temp5157_1 () (_ BitVec 64) #x0000000000000007)
(model-add var461682 () (_ BitVec 64) #x0000000000000007)
(model-add var461681 () (_ BitVec 64) #x0000000000000007)
(model-add var134653 () (_ BitVec 64) #x0000000000000007)
(model-add var528535 () (_ BitVec 64) #x0000000000000007)
(model-add var594392 () (_ BitVec 64) #x0000000000000007)
(model-add temp5157_2 () (_ BitVec 64) #x0000000000000000)
(model-add var2559573 () (_ BitVec 64) #x0000000000000000)
(model-add var2559578 () (_ BitVec 64) #x0000000000000000)
(model-add temp5157_3 () (_ BitVec 64) #x0000000000000000)
(model-add var3083861 () (_ BitVec 64) #x0000000000000000)
(model-add var3083866 () (_ BitVec 64) #x0000000000000000)
(model-add temp5157_5 () (_ BitVec 64) #x0000000000000000)
(model-add temp5157_4 () (_ BitVec 64) #x0000000000000000)
(model-add temp5157_7 () (_ BitVec 64) #x0000000000000000)
(model-add temp5157_6 () (_ BitVec 64) #x0000000000000000)
(model-add temp5157_9 () (_ BitVec 64) #x0000000000000000)
(model-add temp5157_8 () (_ BitVec 64) #x0000000000000000)
(model-add temp5157_11 () (_ BitVec 64) #x0000000000000000)
(model-add temp5157_10 () (_ BitVec 64) #x0000000000000000)
(model-add temp5157_13 () (_ BitVec 64) #x0000000000000000)
(model-add temp5157_12 () (_ BitVec 64) #x0000000000000000)
(model-add temp5157_15 () (_ BitVec 64) #x0000000000000000)
(model-add temp5157_14 () (_ BitVec 64) #x0000000000000000)
(model-add temp5157_17 () (_ BitVec 64) #x0000000000000000)
(model-add temp5157_16 () (_ BitVec 64) #x0000000000000000)
(model-add temp5157_19 () (_ BitVec 64) #x0000000000000000)
(model-add temp5157_18 () (_ BitVec 64) #x0000000000000000)
(model-add temp5157_21 () (_ BitVec 64) #x0000000000000000)
(model-add temp5157_20 () (_ BitVec 64) #x0000000000000000)
(model-add temp5157_23 () (_ BitVec 64) #x0000000000000000)
(model-add temp5157_22 () (_ BitVec 64) #x0000000000000000)
(model-add temp5157_25 () (_ BitVec 64) #x0000000000000000)
(model-add temp5157_24 () (_ BitVec 64) #x0000000000000000)
(model-add temp5157_27 () (_ BitVec 64) #x0000000000000000)
(model-add temp5157_26 () (_ BitVec 64) #x0000000000000000)
(model-add temp5157_29 () (_ BitVec 64) #x0000000000000000)
(model-add temp5157_28 () (_ BitVec 64) #x0000000000000000)
(model-add temp5157_31 () (_ BitVec 64) #x0000000000000000)
(model-add temp5157_30 () (_ BitVec 64) #x0000000000000000)
(model-add temp5157_33 () (_ BitVec 64) #x0000000000000000)
(model-add temp5157_32 () (_ BitVec 64) #x0000000000000000)
(model-add temp5157_35 () (_ BitVec 64) #x0000000000000000)
(model-add temp5157_34 () (_ BitVec 64) #x0000000000000000)
(model-add temp5157_37 () (_ BitVec 64) #x0000000000000000)
(model-add temp5157_36 () (_ BitVec 64) #x0000000000000000)
(model-add temp5157_39 () (_ BitVec 64) #x0000000000000000)
(model-add temp5157_38 () (_ BitVec 64) #x0000000000000000)
(model-add temp5157_41 () (_ BitVec 64) #x0000000000000000)
(model-add temp5157_40 () (_ BitVec 64) #x0000000000000000)
(model-add temp5157_43 () (_ BitVec 64) #x0000000000000000)
(model-add temp5157_42 () (_ BitVec 64) #x0000000000000000)
(model-add temp5157_45 () (_ BitVec 64) #x0000000000000000)
(model-add temp5157_44 () (_ BitVec 64) #x0000000000000000)
(model-add temp5157_47 () (_ BitVec 64) #x0000000000000000)
(model-add temp5157_46 () (_ BitVec 64) #x0000000000000000)
(model-add temp5157_49 () (_ BitVec 64) #x0000000000000000)
(model-add temp5157_48 () (_ BitVec 64) #x0000000000000000)
(model-add temp5157_51 () (_ BitVec 64) #x0000000000000000)
(model-add temp5157_50 () (_ BitVec 64) #x0000000000000000)
(model-add temp5157_53 () (_ BitVec 64) #x0000000000000000)
(model-add temp5157_52 () (_ BitVec 64) #x0000000000000000)
(model-add temp5157_55 () (_ BitVec 64) #x0000000000000000)
(model-add temp5157_54 () (_ BitVec 64) #x0000000000000000)
(model-add temp5157_57 () (_ BitVec 64) #x0000000000000000)
(model-add temp5157_56 () (_ BitVec 64) #x0000000000000000)
(model-add temp5157_58 () (_ BitVec 64) #x0000000000000000)
(model-add var4197973 () (_ BitVec 64) #x0000000000000000)
(model-add var4197978 () (_ BitVec 64) #x0000000000000000)






